70
1 0 1
2 1 1
3 2 1
4 0 1
4 1 1
4 2 1
4 3 1
5 0 1
6 0 1
6 1 1
6 3 1
6 4 1
6 5 1
7 2 1
7 3 1
7 6 1
8 6 1
8 7 1
9 3 1
9 4 1
9 8 1
10 0 1
10 1 1
10 3 1
10 4 1
10 5 1
10 7 1
10 8 1
10 9 1
11 3 1
11 5 1
11 6 1
12 1 1
12 4 1
12 6 1
12 7 1
12 10 1
12 11 1
13 0 1
13 1 1
13 6 1
13 8 1
13 10 1
13 11 1
14 1 1
14 3 1
14 11 1
14 13 1
15 1 1
15 3 1
15 5 1
15 6 1
15 8 1
15 13 1
15 14 1
16 0 1
16 1 1
16 2 1
16 7 1
16 9 1
16 10 1
16 12 1
16 14 1
16 15 1
17 0 1
17 1 1
17 4 1
17 6 1
17 11 1
17 13 1
18 0 1
18 1 1
18 3 1
18 4 1
18 5 1
18 6 1
18 7 1
18 8 1
18 9 1
18 11 1
18 13 1
18 14 1
18 17 1
19 0 1
19 1 1
19 2 1
19 3 1
19 5 1
19 6 1
19 8 1
19 9 1
19 16 1
19 17 1
19 18 1
20 0 1
20 6 1
20 13 1
20 14 1
20 15 1
20 17 1
20 19 1
21 1 1
21 4 1
21 8 1
21 9 1
21 10 1
21 12 1
21 15 1
21 16 1
21 19 1
22 1 1
22 5 1
22 6 1
22 7 1
22 8 1
22 9 1
22 10 1
22 14 1
22 15 1
22 16 1
22 21 1
23 1 1
23 2 1
23 3 1
23 4 1
23 5 1
23 6 1
23 7 1
23 8 1
23 10 1
23 11 1
23 12 1
23 13 1
23 14 1
23 15 1
23 17 1
23 19 1
23 21 1
23 22 1
24 3 1
24 4 1
24 5 1
24 6 1
24 8 1
24 9 1
24 10 1
24 17 1
24 18 1
24 20 1
24 23 1
25 0 1
25 1 1
25 2 1
25 3 1
25 4 1
25 5 1
25 7 1
25 9 1
25 11 1
25 13 1
25 14 1
25 15 1
25 18 1
25 20 1
25 21 1
25 24 1
26 0 1
26 1 1
26 6 1
26 8 1
26 9 1
26 17 1
26 22 1
26 23 1
26 24 1
26 25 1
27 1 1
27 3 1
27 6 1
27 7 1
27 8 1
27 9 1
27 11 1
27 14 1
27 18 1
27 19 1
27 21 1
27 22 1
27 23 1
27 25 1
27 26 1
28 0 1
28 1 1
28 5 1
28 8 1
28 9 1
28 10 1
28 11 1
28 12 1
28 17 1
28 19 1
28 22 1
28 26 1
28 27 1
29 3 1
29 4 1
29 5 1
29 7 1
29 9 1
29 10 1
29 13 1
29 15 1
29 19 1
29 20 1
29 23 1
29 25 1
30 3 1
30 5 1
30 9 1
30 10 1
30 11 1
30 13 1
30 15 1
30 17 1
30 18 1
30 20 1
30 27 1
30 28 1
30 29 1
31 1 1
31 4 1
31 5 1
31 8 1
31 9 1
31 13 1
31 14 1
31 18 1
31 20 1
31 22 1
31 24 1
31 26 1
31 29 1
32 0 1
32 1 1
32 2 1
32 3 1
32 6 1
32 12 1
32 13 1
32 14 1
32 18 1
32 21 1
32 24 1
32 26 1
32 28 1
33 1 1
33 3 1
33 5 1
33 6 1
33 9 1
33 10 1
33 11 1
33 12 1
33 13 1
33 16 1
33 18 1
33 20 1
33 21 1
33 23 1
33 24 1
33 28 1
33 30 1
33 32 1
34 0 1
34 3 1
34 4 1
34 5 1
34 7 1
34 8 1
34 9 1
34 10 1
34 12 1
34 15 1
34 17 1
34 18 1
34 19 1
34 21 1
34 22 1
34 24 1
34 25 1
34 27 1
34 30 1
34 33 1
35 0 1
35 7 1
35 9 1
35 13 1
35 14 1
35 15 1
35 16 1
35 17 1
35 18 1
35 22 1
35 23 1
35 24 1
35 25 1
35 32 1
35 33 1
35 34 1
36 1 1
36 2 1
36 3 1
36 4 1
36 6 1
36 8 1
36 10 1
36 11 1
36 12 1
36 14 1
36 21 1
36 22 1
36 24 1
36 26 1
36 29 1
36 32 1
36 34 1
37 1 1
37 5 1
37 7 1
37 9 1
37 14 1
37 17 1
37 19 1
37 20 1
37 21 1
37 22 1
37 23 1
37 25 1
37 27 1
37 28 1
37 29 1
37 31 1
37 35 1
38 4 1
38 6 1
38 7 1
38 8 1
38 10 1
38 11 1
38 16 1
38 17 1
38 22 1
38 23 1
38 26 1
38 28 1
38 30 1
38 32 1
38 33 1
38 34 1
38 36 1
39 0 1
39 1 1
39 3 1
39 4 1
39 5 1
39 10 1
39 12 1
39 13 1
39 17 1
39 18 1
39 20 1
39 21 1
39 22 1
39 23 1
39 25 1
39 26 1
39 27 1
39 28 1
39 30 1
39 31 1
39 32 1
39 33 1
39 35 1
39 36 1
39 38 1
40 0 1
40 1 1
40 6 1
40 7 1
40 9 1
40 11 1
40 17 1
40 18 1
40 19 1
40 20 1
40 21 1
40 22 1
40 27 1
40 28 1
40 29 1
40 30 1
40 31 1
40 35 1
40 36 1
40 39 1
41 0 1
41 1 1
41 5 1
41 6 1
41 9 1
41 10 1
41 13 1
41 15 1
41 16 1
41 17 1
41 20 1
41 22 1
41 23 1
41 25 1
41 26 1
41 28 1
41 29 1
41 32 1
41 33 1
41 34 1
41 35 1
41 36 1
41 38 1
41 40 1
42 2 1
42 3 1
42 4 1
42 6 1
42 8 1
42 9 1
42 11 1
42 13 1
42 14 1
42 17 1
42 18 1
42 21 1
42 23 1
42 24 1
42 25 1
42 26 1
42 29 1
42 31 1
42 32 1
42 33 1
42 34 1
42 35 1
42 37 1
43 2 1
43 3 1
43 4 1
43 5 1
43 6 1
43 8 1
43 9 1
43 14 1
43 19 1
43 20 1
43 23 1
43 24 1
43 27 1
43 30 1
43 31 1
43 33 1
43 34 1
43 36 1
43 37 1
43 38 1
43 41 1
44 0 1
44 1 1
44 2 1
44 6 1
44 7 1
44 8 1
44 9 1
44 10 1
44 11 1
44 14 1
44 16 1
44 17 1
44 18 1
44 20 1
44 21 1
44 27 1
44 30 1
44 31 1
44 33 1
44 34 1
44 35 1
44 36 1
44 37 1
44 39 1
45 0 1
45 1 1
45 3 1
45 6 1
45 7 1
45 10 1
45 11 1
45 14 1
45 17 1
45 20 1
45 22 1
45 26 1
45 30 1
45 35 1
45 38 1
45 42 1
46 0 1
46 6 1
46 10 1
46 11 1
46 12 1
46 13 1
46 15 1
46 16 1
46 17 1
46 18 1
46 20 1
46 23 1
46 24 1
46 25 1
46 29 1
46 32 1
46 34 1
46 35 1
46 36 1
46 37 1
46 40 1
46 42 1
47 4 1
47 5 1
47 6 1
47 7 1
47 8 1
47 11 1
47 13 1
47 16 1
47 17 1
47 19 1
47 21 1
47 24 1
47 27 1
47 29 1
47 33 1
47 35 1
47 36 1
47 38 1
47 39 1
47 40 1
47 41 1
47 44 1
47 46 1
48 2 1
48 4 1
48 8 1
48 9 1
48 10 1
48 11 1
48 13 1
48 14 1
48 15 1
48 17 1
48 18 1
48 20 1
48 22 1
48 28 1
48 30 1
48 31 1
48 32 1
48 34 1
48 35 1
48 36 1
48 40 1
48 41 1
48 42 1
48 44 1
48 45 1
48 46 1
49 1 1
49 2 1
49 3 1
49 5 1
49 8 1
49 9 1
49 11 1
49 13 1
49 14 1
49 15 1
49 16 1
49 18 1
49 21 1
49 27 1
49 32 1
49 34 1
49 36 1
49 38 1
49 39 1
49 43 1
49 44 1
49 46 1
49 48 1
50 3 1
50 4 1
50 5 1
50 6 1
50 8 1
50 11 1
50 12 1
50 15 1
50 16 1
50 18 1
50 20 1
50 21 1
50 22 1
50 25 1
50 26 1
50 28 1
50 31 1
50 32 1
50 34 1
50 35 1
50 37 1
50 38 1
50 42 1
50 43 1
50 44 1
50 47 1
50 48 1
51 0 1
51 1 1
51 2 1
51 3 1
51 6 1
51 7 1
51 8 1
51 11 1
51 12 1
51 16 1
51 17 1
51 18 1
51 20 1
51 22 1
51 24 1
51 25 1
51 27 1
51 28 1
51 29 1
51 31 1
51 33 1
51 37 1
51 39 1
51 40 1
51 44 1
51 45 1
51 48 1
52 4 1
52 6 1
52 11 1
52 12 1
52 15 1
52 16 1
52 18 1
52 20 1
52 21 1
52 25 1
52 26 1
52 28 1
52 32 1
52 36 1
52 38 1
52 40 1
52 45 1
52 46 1
52 47 1
52 51 1
53 0 1
53 1 1
53 5 1
53 6 1
53 7 1
53 10 1
53 11 1
53 14 1
53 18 1
53 19 1
53 20 1
53 22 1
53 24 1
53 25 1
53 32 1
53 36 1
53 40 1
53 41 1
53 42 1
53 44 1
53 45 1
53 47 1
53 49 1
53 51 1
54 0 1
54 4 1
54 6 1
54 7 1
54 8 1
54 9 1
54 10 1
54 12 1
54 15 1
54 17 1
54 18 1
54 19 1
54 21 1
54 22 1
54 23 1
54 28 1
54 29 1
54 30 1
54 31 1
54 32 1
54 33 1
54 34 1
54 42 1
54 44 1
54 49 1
54 52 1
55 1 1
55 3 1
55 5 1
55 6 1
55 7 1
55 8 1
55 10 1
55 11 1
55 12 1
55 13 1
55 14 1
55 15 1
55 17 1
55 19 1
55 21 1
55 23 1
55 24 1
55 27 1
55 28 1
55 29 1
55 34 1
55 36 1
55 37 1
55 40 1
55 41 1
55 46 1
55 50 1
55 53 1
55 54 1
56 1 1
56 2 1
56 5 1
56 6 1
56 7 1
56 9 1
56 10 1
56 11 1
56 13 1
56 14 1
56 16 1
56 17 1
56 20 1
56 23 1
56 24 1
56 26 1
56 28 1
56 29 1
56 30 1
56 31 1
56 32 1
56 34 1
56 35 1
56 36 1
56 37 1
56 38 1
56 39 1
56 41 1
56 44 1
56 46 1
56 48 1
56 52 1
56 53 1
56 54 1
57 0 1
57 3 1
57 5 1
57 6 1
57 8 1
57 13 1
57 15 1
57 16 1
57 17 1
57 18 1
57 22 1
57 25 1
57 26 1
57 30 1
57 31 1
57 37 1
57 38 1
57 40 1
57 41 1
57 43 1
57 45 1
57 48 1
57 49 1
57 50 1
57 52 1
57 54 1
57 55 1
58 0 1
58 1 1
58 2 1
58 3 1
58 5 1
58 6 1
58 7 1
58 9 1
58 11 1
58 17 1
58 18 1
58 19 1
58 24 1
58 25 1
58 26 1
58 27 1
58 30 1
58 32 1
58 34 1
58 36 1
58 37 1
58 38 1
58 41 1
58 42 1
58 45 1
58 46 1
58 49 1
58 51 1
58 52 1
58 53 1
58 54 1
58 55 1
58 56 1
59 0 1
59 2 1
59 3 1
59 6 1
59 7 1
59 8 1
59 9 1
59 12 1
59 13 1
59 14 1
59 15 1
59 23 1
59 25 1
59 26 1
59 27 1
59 28 1
59 30 1
59 31 1
59 33 1
59 34 1
59 35 1
59 42 1
59 43 1
59 44 1
59 45 1
59 48 1
59 50 1
59 53 1
59 54 1
60 1 1
60 4 1
60 7 1
60 10 1
60 11 1
60 12 1
60 13 1
60 14 1
60 15 1
60 16 1
60 25 1
60 27 1
60 29 1
60 32 1
60 33 1
60 35 1
60 37 1
60 38 1
60 40 1
60 45 1
60 46 1
60 49 1
60 53 1
60 55 1
60 57 1
60 58 1
60 59 1
61 1 1
61 3 1
61 6 1
61 7 1
61 8 1
61 10 1
61 11 1
61 12 1
61 13 1
61 14 1
61 15 1
61 20 1
61 21 1
61 22 1
61 23 1
61 25 1
61 26 1
61 30 1
61 31 1
61 33 1
61 35 1
61 36 1
61 38 1
61 40 1
61 47 1
61 48 1
61 49 1
61 52 1
61 53 1
61 54 1
61 56 1
61 58 1
61 59 1
62 0 1
62 3 1
62 4 1
62 5 1
62 6 1
62 7 1
62 8 1
62 10 1
62 11 1
62 13 1
62 14 1
62 15 1
62 17 1
62 21 1
62 23 1
62 30 1
62 31 1
62 32 1
62 34 1
62 36 1
62 41 1
62 48 1
62 49 1
62 50 1
62 52 1
62 54 1
62 57 1
62 58 1
62 59 1
62 61 1
63 1 1
63 2 1
63 4 1
63 7 1
63 8 1
63 11 1
63 14 1
63 15 1
63 16 1
63 18 1
63 22 1
63 25 1
63 26 1
63 27 1
63 29 1
63 31 1
63 32 1
63 36 1
63 38 1
63 40 1
63 43 1
63 44 1
63 45 1
63 46 1
63 50 1
63 53 1
63 54 1
63 57 1
63 58 1
63 60 1
63 62 1
64 0 1
64 2 1
64 5 1
64 6 1
64 9 1
64 10 1
64 11 1
64 12 1
64 13 1
64 15 1
64 16 1
64 20 1
64 21 1
64 22 1
64 25 1
64 26 1
64 29 1
64 31 1
64 35 1
64 36 1
64 39 1
64 40 1
64 42 1
64 43 1
64 45 1
64 47 1
64 49 1
64 54 1
64 57 1
64 58 1
64 59 1
64 62 1
64 63 1
65 0 1
65 3 1
65 4 1
65 7 1
65 8 1
65 9 1
65 10 1
65 12 1
65 13 1
65 16 1
65 18 1
65 19 1
65 20 1
65 22 1
65 23 1
65 24 1
65 27 1
65 28 1
65 30 1
65 31 1
65 34 1
65 35 1
65 36 1
65 38 1
65 39 1
65 40 1
65 41 1
65 46 1
65 48 1
65 49 1
65 50 1
65 51 1
65 52 1
65 56 1
65 59 1
65 60 1
65 62 1
65 64 1
66 0 1
66 2 1
66 7 1
66 11 1
66 13 1
66 16 1
66 19 1
66 22 1
66 25 1
66 26 1
66 31 1
66 34 1
66 36 1
66 38 1
66 41 1
66 43 1
66 44 1
66 45 1
66 46 1
66 51 1
66 53 1
66 55 1
66 56 1
66 57 1
66 62 1
67 3 1
67 4 1
67 6 1
67 7 1
67 8 1
67 10 1
67 11 1
67 14 1
67 16 1
67 17 1
67 22 1
67 25 1
67 26 1
67 30 1
67 35 1
67 38 1
67 40 1
67 44 1
67 46 1
67 47 1
67 49 1
67 52 1
67 53 1
67 54 1
67 55 1
67 56 1
67 62 1
67 66 1
68 4 1
68 7 1
68 11 1
68 12 1
68 14 1
68 15 1
68 16 1
68 17 1
68 19 1
68 20 1
68 22 1
68 23 1
68 24 1
68 31 1
68 32 1
68 35 1
68 36 1
68 41 1
68 42 1
68 43 1
68 45 1
68 46 1
68 47 1
68 49 1
68 50 1
68 52 1
68 53 1
68 55 1
68 57 1
68 59 1
68 61 1
68 63 1
69 0 1
69 1 1
69 5 1
69 7 1
69 8 1
69 9 1
69 10 1
69 11 1
69 12 1
69 13 1
69 15 1
69 16 1
69 17 1
69 19 1
69 20 1
69 21 1
69 23 1
69 24 1
69 25 1
69 27 1
69 29 1
69 31 1
69 32 1
69 33 1
69 35 1
69 36 1
69 38 1
69 39 1
69 42 1
69 43 1
69 45 1
69 46 1
69 49 1
69 51 1
69 53 1
69 57 1
69 58 1
69 59 1
69 61 1
69 62 1
69 64 1
69 67 1
